c instancia_11  vars=15  clausulas=25  k=2
p cnf 15 25
-9 2 0
8 -1 0
1 15 0
4 6 0
2 5 0
-1 13 0
-12 14 0
-8 4 0
-15 -6 0
-10 8 0
-15 11 0
-8 5 0
-8 14 0
-7 9 0
5 -15 0
-15 9 0
-14 3 0
-2 -9 0
6 12 0
13 15 0
4 2 0
14 8 0
-4 2 0
-10 7 0
3 -6 0
